c 3 - XORSAT
p cnf 50 200
12 15 8 0
-12 -15 8 0
-12 15 -8 0
12 -15 -8 0
-2 -35 -37 0
-2 35 37 0
2 -35 37 0
2 35 -37 0
-16 -22 -40 0
-16 22 40 0
16 -22 40 0
16 22 -40 0
18 46 50 0
-18 -46 50 0
-18 46 -50 0
18 -46 -50 0
-2 -4 -8 0
-2 4 8 0
2 -4 8 0
2 4 -8 0
13 27 38 0
-13 -27 38 0
-13 27 -38 0
13 -27 -38 0
-5 -20 -21 0
-5 20 21 0
5 -20 21 0
5 20 -21 0
5 27 37 0
-5 -27 37 0
-5 27 -37 0
5 -27 -37 0
28 35 42 0
-28 -35 42 0
-28 35 -42 0
28 -35 -42 0
14 20 42 0
-14 -20 42 0
-14 20 -42 0
14 -20 -42 0
-4 -29 -49 0
-4 29 49 0
4 -29 49 0
4 29 -49 0
-15 -24 -35 0
-15 24 35 0
15 -24 35 0
15 24 -35 0
30 39 47 0
-30 -39 47 0
-30 39 -47 0
30 -39 -47 0
5 23 38 0
-5 -23 38 0
-5 23 -38 0
5 -23 -38 0
-30 -36 -48 0
-30 36 48 0
30 -36 48 0
30 36 -48 0
-3 -12 -16 0
-3 12 16 0
3 -12 16 0
3 12 -16 0
40 43 47 0
-40 -43 47 0
-40 43 -47 0
40 -43 -47 0
43 45 50 0
-43 -45 50 0
-43 45 -50 0
43 -45 -50 0
-6 -8 -9 0
-6 8 9 0
6 -8 9 0
6 8 -9 0
-7 -19 -34 0
-7 19 34 0
7 -19 34 0
7 19 -34 0
17 19 28 0
-17 -19 28 0
-17 19 -28 0
17 -19 -28 0
-4 -11 -13 0
-4 11 13 0
4 -11 13 0
4 11 -13 0
-22 -41 -43 0
-22 41 43 0
22 -41 43 0
22 41 -43 0
21 24 41 0
-21 -24 41 0
-21 24 -41 0
21 -24 -41 0
18 23 24 0
-18 -23 24 0
-18 23 -24 0
18 -23 -24 0
-2 -46 -49 0
-2 46 49 0
2 -46 49 0
2 46 -49 0
6 10 33 0
-6 -10 33 0
-6 10 -33 0
6 -10 -33 0
45 46 44 0
-45 -46 44 0
-45 46 -44 0
45 -46 -44 0
-1 -15 -17 0
-1 15 17 0
1 -15 17 0
1 15 -17 0
-11 -16 -33 0
-11 16 33 0
11 -16 33 0
11 16 -33 0
25 26 39 0
-25 -26 39 0
-25 26 -39 0
25 -26 -39 0
31 44 37 0
-31 -44 37 0
-31 44 -37 0
31 -44 -37 0
-9 -28 -31 0
-9 28 31 0
9 -28 31 0
9 28 -31 0
45 47 48 0
-45 -47 48 0
-45 47 -48 0
45 -47 -48 0
-22 -34 -40 0
-22 34 40 0
22 -34 40 0
22 34 -40 0
9 10 12 0
-9 -10 12 0
-9 10 -12 0
9 -10 -12 0
1 26 29 0
-1 -26 29 0
-1 26 -29 0
1 -26 -29 0
25 30 31 0
-25 -30 31 0
-25 30 -31 0
25 -30 -31 0
10 19 44 0
-10 -19 44 0
-10 19 -44 0
10 -19 -44 0
17 32 33 0
-17 -32 33 0
-17 32 -33 0
17 -32 -33 0
18 29 39 0
-18 -29 39 0
-18 29 -39 0
18 -29 -39 0
48 49 50 0
-48 -49 50 0
-48 49 -50 0
48 -49 -50 0
14 25 36 0
-14 -25 36 0
-14 25 -36 0
14 -25 -36 0
7 36 41 0
-7 -36 41 0
-7 36 -41 0
7 -36 -41 0
21 32 38 0
-21 -32 38 0
-21 32 -38 0
21 -32 -38 0
-1 -7 -20 0
-1 7 20 0
1 -7 20 0
1 7 -20 0
6 26 32 0
-6 -26 32 0
-6 26 -32 0
6 -26 -32 0
23 27 34 0
-23 -27 34 0
-23 27 -34 0
23 -27 -34 0
3 11 14 0
-3 -11 14 0
-3 11 -14 0
3 -11 -14 0
-3 -13 -42 0
-3 13 42 0
3 -13 42 0
3 13 -42 0
